p cnf 12 50 
5 -2 6 0
6 -4 10 0
-3 -7 5 0
2 12 9 0
-2 8 9 0
-1 -4 -7 0
3 6 2 0
3 -5 6 0
-1 -5 6 0
-11 -2 -10 0
-11 -3 5 0
7 5 -10 0
-5 4 1 0
11 10 5 0
2 -11 -5 0
-7 -2 3 0
-3 -5 -7 0
-5 9 3 0
4 -5 8 0
-7 -6 -2 0
-8 3 -4 0
-8 -3 -7 0
-9 -1 2 0
-10 5 -11 0
-8 2 -4 0
6 -11 -10 0
5 -2 -4 0
8 -11 -3 0
-8 -10 -1 0
8 -11 -6 0
1 -8 -4 0
5 3 -11 0
8 5 9 0
3 12 -9 0
-11 7 12 0
-10 6 9 0
1 11 -7 0
5 -3 10 0
-2 -3 -11 0
3 10 -4 0
-6 -5 -2 0
-7 11 -6 0
-10 5 -3 0
-7 -6 -5 0
6 -11 -10 0
-2 -8 -1 0
9 10 1 0
6 5 -11 0
4 7 1 0
8 -10 4 0
